
;this file is automatically generated: Thu Jan 02 16:54:47 GMT 2020

;declarations generated

(declare-fun oclExcludes ( Int Int) Bool)
(declare-fun type_8c864bc3_76d3_4b63_a884_5df605e74a34_Class44 ( Int) Bool)
(declare-fun Cardinality ( Int) Int)
(declare-fun obj_bcad0b92_8976_4634_8d55_79c5d81751f2 ( Int) Int)
(declare-fun oclSelect ( Int Bool) Int)
(declare-fun Enum0 ( Int) Int)
(declare-fun Enum1 ( Int) Int)
(declare-fun Enum2 ( Int) Int)
(declare-fun container_ ( Int) Int)
(declare-fun oclIncludes ( Int Int) Bool)
(declare-fun ObjAt ( Int Int) Int)

;formula(s) generated
(assert (! (forall ((c1 Int)) (=> ( type_8c864bc3_76d3_4b63_a884_5df605e74a34_Class44 c1 )  (= ( Enum2 ( obj_bcad0b92_8976_4634_8d55_79c5d81751f2 c1 )  )  5))):named l0))
(assert (exists ((o Int)) ( type_8c864bc3_76d3_4b63_a884_5df605e74a34_Class44 ( obj_bcad0b92_8976_4634_8d55_79c5d81751f2 o )  ) ))

 ;end of formula 